c WARNING: for repeatability, setting FPU to use double precision
d VARIABLES            138690       
d CONSTRAINTS          583353       
c ============================[ Problem Statistics ]=============================
c |                                                                             |
c |  Number of variables:        138690                                         |
c |  Number of clauses:          583353                                         |
c |  Parse time:                   0.10 s                                       |
c |                                                                             |
c ============================[ Search Statistics ]==============================
c | Conflicts |          ORIGINAL         |          LEARNT          | Progress |
c |           |    Vars  Clauses Literals |    Limit  Clauses Lit/Cl |          |
c ===============================================================================
c |       100 |  109109   506927  1232915 |   185873       99     46 | 21.329 % |
c |       250 |  109109   506927  1232915 |   204460      249     50 | 21.329 % |
c |       475 |  109109   506927  1232915 |   224906      474     79 | 21.329 % |
c |       812 |  109109   506902  1232855 |   247397      811     94 | 21.329 % |
c |      1318 |  109109   506902  1232855 |   272137     1317    105 | 21.329 % |
c |      2077 |  109109   506902  1232855 |   299350     2076    112 | 21.329 % |
c |      3216 |  109109   506902  1232855 |   329285     3215    184 | 21.329 % |
c |      4924 |  109109   506902  1232855 |   362214     4923    178 | 21.329 % |
c |      7486 |  109109   506902  1232855 |   398435     7485    188 | 21.329 % |
c |     11330 |  109109   506902  1232855 |   438279    11329    186 | 21.329 % |
c |     17096 |  109109   506902  1232855 |   482107    17095    198 | 21.329 % |
c ===============================================================================
c restarts              : 69
c conflicts             : 19930          (1861 /sec)
c decisions             : 101747         (0.00 % random) (9501 /sec)
c propagations          : 61387398       (5732496 /sec)
c conflict literals     : 4022860        (6.90 % deleted)
d RESTARTS             69
d FAILURES             19930        
d NODES                101747       
d BACKTRACKS           101747       
d PROPAGATIONS         61387398     
d NOGOODSIZE           201.85 
d MEMORY               70.00 
d TIME                 10.7087 

s SATISFIABLE
